0000000000000000
0000000000000000
0000000000000000
0000111111110000
0000000000011000
0000000000001100
0000000000000100
0000010000000100
0000010000000100
0000010000000100
0000010000000100
0000010000000100
0000000000000000
0000000000000000
0000000000000000
0000000000000000
